r = [
0,161,147,85,93,110,6,381,20,120,51,116,219,86,161,316,40,280,346,332,138,247,297,184,140,177,0
];
p = [
0,13,30,25,19,19,22,6,30,18,9,19,6,30,22,1,10,17,10,15,7,15,15,22,25,22,0
];
e = [
0,16,10,8,8,16,5,13,1,14,16,8,1,2,16,15,15,12,10,12,7,15,5,8,1,18,0
];
d = [
0,218,199,119,317,301,28,387,242,138,60,135,269,182,294,537,50,431,576,347,145,262,312,206,330,264,585
];
d_bar = [
0,230,226,142,334,318,48,392,269,154,68,152,274,209,314,538,59,446,585,361,151,276,326,226,353,284,585
];
w = [
0,1.333333333,0.37037037,0.347826087,0.470588235,0.941176471,0.25,2.6,0.037037037,0.875,2,0.470588235,0.2,0.074074074,0.8,15,1.666666667,0.8,1.111111111,0.857142857,1.166666667,1.071428571,0.357142857,0.4,0.043478261,0.9,0
];
